adpp_gurobi/instances/type2/ngcutfs2_3_adpp.txt.out
Academic license - for non-commercial use only
Optimize a model with 309 rows, 600 columns and 1800 nonzeros
Variable types: 0 continuous, 600 integer (600 binary)
Coefficient statistics:
  Matrix range     [1e+00, 1e+00]
  Objective range  [7e-01, 4e+02]
  Bounds range     [1e+00, 1e+00]
  RHS range        [1e+00, 3e+00]
Found heuristic solution: objective 149.6764000
Presolve removed 155 rows and 0 columns
Presolve time: 0.00s
Presolved: 154 rows, 600 columns, 1200 nonzeros
Variable types: 0 continuous, 600 integer (600 binary)

Root relaxation: objective 1.493978e+03, 1 iterations, 0.00 seconds

    Nodes    |    Current Node    |     Objective Bounds      |     Work
 Expl Unexpl |  Obj  Depth IntInf | Incumbent    BestBd   Gap | It/Node Time

*    0     0               0    1493.9779000 1493.97790  0.00%     -    0s

Explored 0 nodes (1 simplex iterations) in 0.01 seconds
Thread count was 8 (of 8 available processors)

Solution count 2: 1493.98 149.676 

Optimal solution found (tolerance 1.00e-04)
Best objective 1.493977900000e+03, best bound 1.493977900000e+03, gap 0.0000%
Obj: 1493.98
